NAME : full_constant_constant_4_6_1.tsp
COMMENT : full_constant_constant_4_6_1.tsp
TYPE : TSP
DIMENSION : 16
EDGE_WEIGHT_TYPE : EUC_2D
NODE_COORD_SECTION
1 10.000000 10.000000
2 10.000000 11.000000
3 10.000000 12.000000
4 10.000000 13.000000
5 11.000000 10.000000
6 11.000000 13.000000
7 12.000000 10.000000
8 12.000000 13.000000
9 13.000000 10.000000
10 13.000000 13.000000
11 14.000000 10.000000
12 14.000000 13.000000
13 15.000000 10.000000
14 15.000000 11.000000
15 15.000000 12.000000
16 15.000000 13.000000
EOF